NAME : instances/clustered-mixed-tsp/instance-23.tsp
COMMENT : No Comment
TYPE : TSP
DIMENSION: 41
EDGE_WEIGHT_TYPE : EUC_2D
NODE_COORD_SECTION
1 7402 6942 
2 7099 8014 
3 4877 1648 
4 3438 9164 
5 6522 8133 
6 6084 7226 
7 2989 8850 
8 5189 5984 
9 4664 1619 
10 5767 5996 
11 6445 4846 
12 3530 9005 
13 4906 1952 
14 5025 6497 
15 7153 8068 
16 5447 6178 
17 3456 8375 
18 6327 8094 
19 5160 6007 
20 3096 8525 
21 6621 7843 
22 3012 8565 
23 7738 7472 
24 6465 6813 
25 4997 1118 
26 5961 6605 
27 7448 6643 
28 5454 6001 
29 6310 7912 
30 7158 8438 
31 6586 7424 
32 4542 1577 
33 6916 8379 
34 2861 8432 
35 3628 8466 
36 7222 6729 
37 6611 7756 
38 6988 5424 
39 6637 4788 
40 5128 5840 
41 7640 7295 
EOF
